SCIP Status        : solving was interrupted [time limit reached]
Total Time         :    3600.03
  solving          :    3600.00
  presolving       :       0.43 (included in solving)
  reading          :       0.03
  copying          :       0.04 (5 #copies) (minimal 0.01, maximal 0.01, average 0.01)
Original Problem   :
  Problem name     : chp_partload
  Variables        : 2248 (37 binary, 8 integer, 0 implicit integer, 2203 continuous)
  Constraints      : 2516 initial, 2516 maximal
  Objective        : minimize, 10 non-zeros (abs.min = 0.0674077, abs.max = 0.140468)
Presolved Problem  :
  Problem name     : t_chp_partload
  Variables        : 2740 (42 binary, 0 integer, 0 implicit integer, 2698 continuous)
  Constraints      : 866 initial, 870 maximal
  Objective        : minimize, 5 non-zeros (abs.min = 0.005, abs.max = 0.570177)
  Nonzeros         : 3350 constraint, 108 clique table
Presolvers         :   ExecTime  SetupTime  Calls  FixedVars   AggrVars   ChgTypes  ChgBounds   AddHoles    DelCons    AddCons   ChgSides   ChgCoefs
  boundshift       :       0.00       0.00      0          0          0          0          0          0          0          0          0          0
  convertinttobin  :       0.00       0.00      0          0          0          0          0          0          0          0          0          0
  domcol           :       0.00       0.00      2          0          0          0          0          0          0          0          0          0
  dualagg          :       0.00       0.00      0          0          0          0          0          0          0          0          0          0
  dualcomp         :       0.00       0.00      2          0          0          0          0          0          0          0          0          0
  dualinfer        :       0.00       0.00      0          0          0          0          0          0          0          0          0          0
  dualsparsify     :       0.00       0.00      1          0          0          0          0          0          0          0          0          0
  gateextraction   :       0.00       0.00      5          0          0          0          0          0         73         17          0          0
  implics          :       0.00       0.00      7          0          0          0          0          0          0          0          0          0
  inttobinary      :       0.00       0.00      0          0          0          0          0          0          0          0          0          0
  qpkktref         :       0.00       0.00      0          0          0          0          0          0          0          0          0          0
  redvub           :       0.00       0.00      0          0          0          0          0          0          0          0          0          0
  sparsify         :       0.00       0.00      1          0          0          0          0          0          0          0          0          0
  stuffing         :       0.00       0.00      0          0          0          0          0          0          0          0          0          0
  trivial          :       0.00       0.00     13          9          0          0          0          0          0          0          0          0
  tworowbnd        :       0.00       0.00      0          0          0          0          0          0          0          0          0          0
  dualfix          :       0.00       0.00     13          0          0          0          0          0          0          0          0          0
  genvbounds       :       0.00       0.00      0          0          0          0          0          0          0          0          0          0
  probing          :       0.03       0.00      2          3          0          0          3          0          0          0          0          0
  pseudoobj        :       0.00       0.00      0          0          0          0          0          0          0          0          0          0
  symmetry         :       0.00       0.00      1          0          0          0          0          0          0          0          0          0
  vbounds          :       0.00       0.00      2          0          0          0          0          0          0          0          0          0
  varbound         :       0.00       0.00     12          0          0          0          0          0          3          0          0          1
  setppc           :       0.00       0.00     16          0          0          0          0          0          1          0          0          0
  and              :       0.00       0.00     10          0          0          0          0          0          0          0          0          0
  linear           :       0.02       0.00     19         31       1510          0        672          0       1575          0        146        130
  logicor          :       0.00       0.00     15          0          0          0          0          0          8          0          0          0
  nonlinear        :       0.37       0.02     22          0          0          0        258          0          0        -17          0       -131
  benders          :       0.00       0.00      0          0          0          0          0          0          0          0          0          0
  components       :       0.00       0.00      1          0          0          0          0          0          0          0          0          0
  root node        :          -          -      -          1          -          -       1290          -          -          -          -          -
Constraints        :     Number  MaxNumber  #Separate #Propagate    #EnfoLP    #EnfoRelax  #EnfoPS    #Check   #ResProp    Cutoffs    DomReds       Cuts    Applied      Conss   Children
  benderslp        :          0          0          0          0      13867          0          0       1949          0          0          0          0          0          0          0
  integral         :          0          0          0          0      13867          0          0       1949          0          0       1556          0          0          3       1962
  varbound         :         81         81         34      18346          0          0          0       1945         11          1       2071          0          0          0          0
  setppc           :          7          7         34       5197          0          0          0       1838          0          1         54          0          0          0          0
  and              :         14         14      20561      18170          0          0          0       1838          3          0        567        457        343          0          0
  linear           :        281+       285         34      18345          0          0          0       1837          5         22      18743          0          0          0          0
  logicor          :          2+         4         34        787          0          0          0       1830          0          1         16          0          0          0          0
  nonlinear        :        481        481      20648      18322      12674          0          0       1830          0        108     236941    2104170    1148097          0       4326
  benders          :          0          0          0          0          0          0          0          0          0          0          0          0          0          0          0
  countsols        :          0          0          0          0          0          0          0          0          0          0          0          0          0          0          0
  components       :          0          0          0          0          0          0          0          0          0          0          0          0          0          0          0
Constraint Timings :  TotalTime  SetupTime   Separate  Propagate     EnfoLP     EnfoPS     EnfoRelax   Check    ResProp    SB-Prop
  benderslp        :       0.01       0.00       0.00       0.00       0.01       0.00       0.00       0.00       0.00       0.00
  integral         :      95.31       0.00       0.00       0.00      95.31       0.00       0.00       0.00       0.00       0.00
  varbound         :       0.06       0.00       0.00       0.02       0.00       0.00       0.00       0.03       0.00       0.01
  setppc           :       0.00       0.00       0.00       0.00       0.00       0.00       0.00       0.00       0.00       0.00
  and              :       0.08       0.00       0.05       0.01       0.00       0.00       0.00       0.01       0.00       0.01
  linear           :       0.20       0.00       0.00       0.15       0.00       0.00       0.00       0.02       0.00       0.03
  logicor          :       0.00       0.00       0.00       0.00       0.00       0.00       0.00       0.00       0.00       0.00
  nonlinear        :     208.08       0.02     118.75       4.03      83.53       0.00       0.00       1.21       0.00       0.53
  benders          :       0.00       0.00       0.00       0.00       0.00       0.00       0.00       0.00       0.00       0.00
  countsols        :       0.00       0.00       0.00       0.00       0.00       0.00       0.00       0.00       0.00       0.00
  components       :       0.00       0.00       0.00       0.00       0.00       0.00       0.00       0.00       0.00       0.00
Propagators        : #Propagate   #ResProp    Cutoffs    DomReds
  dualfix          :         17          0          0          0
  genvbounds       :       5061          0          0       6657
  nlobbt           :          0          0          0          0
  obbt             :         16          0          0        107
  probing          :          0          0          0          0
  pseudoobj        :      25604          0          0          0
  redcost          :      43567          0          0          0
  rootredcost      :          1          0          0          0
  symmetry         :          0          0          0          0
  vbounds          :       4575          0          0          0
Propagator Timings :  TotalTime  SetupTime   Presolve  Propagate    ResProp    SB-Prop
  dualfix          :       0.00       0.00       0.00       0.00       0.00       0.00
  genvbounds       :       0.09       0.00       0.00       0.08       0.00       0.00
  nlobbt           :       0.00       0.00       0.00       0.00       0.00       0.00
  obbt             :      55.81       0.00       0.00      55.81       0.00       0.00
  probing          :       0.03       0.00       0.03       0.00       0.00       0.00
  pseudoobj        :       0.05       0.00       0.00       0.05       0.00       0.00
  redcost          :       1.41       0.00       0.00       1.41       0.00       0.00
  rootredcost      :       0.02       0.00       0.00       0.01       0.00       0.00
  symmetry         :       0.01       0.00       0.00       0.00       0.00       0.00
  vbounds          :       0.02       0.00       0.00       0.02       0.00       0.00
Conflict Analysis  :       Time      Calls    Success    DomReds  Conflicts   Literals    Reconvs ReconvLits   Dualrays   Nonzeros   LP Iters   (pool size: [10000,10000])
  propagation      :       0.00          3          2          -          2        3.5          0        0.0          -          -          -
  infeasible LP    :       0.07        218         24          -          2        2.5          0        0.0         24       10.4          0
  bound exceed. LP :       0.16         72          2          -          0        0.0          0        0.0          2      140.0         10
  strong branching :       0.00          0          0          -          0        0.0          0        0.0          -          -          0
  pseudo solution  :       0.00          0          0          -          0        0.0          0        0.0          -          -          -
  applied globally :       0.00          -          -          0          3        3.0          -          -          2          -          -
  applied locally  :          -          -          -          0          0        0.0          -          -         24          -          -
Separators         :   ExecTime  SetupTime      Calls  RootCalls    Cutoffs    DomReds  FoundCuts ViaPoolAdd  DirectAdd    Applied ViaPoolApp  DirectApp      Conss
  cut pool         :       0.08          -       1984         84          -          -       3865       5435          -          -          -          -          -    (maximal pool size:       3838)
  aggregation      :       0.83       0.00         48         34          0          0       3475       4719          0        705        705          0          0
  > cmir           :          -          -          -          -          -          -          -       3794          0        505        505          0          -
  > flowcover      :          -          -          -          -          -          -          -        920          0        200        200          0          -
  > knapsackcover  :          -          -          -          -          -          -          -          5          0          0          0          0          -
  cgmip            :       0.00       0.00          0          0          0          0          0          0          0          0          0          0          0
  clique           :       0.00       0.00         34         34          0          0          0          0          0          0          0          0          0
  closecuts        :       0.00       0.00          0          0          0          0          0          0          0          0          0          0          0
  convexproj       :       0.00       0.00          0          0          0          0          0          0          0          0          0          0          0
  disjunctive      :       0.00       0.00          0          0          0          0          0          0          0          0          0          0          0
  eccuts           :       0.00       0.00          0          0          0          0          0          0          0          0          0          0          0
  gauge            :       0.00       0.00          0          0          0          0          0          0          0          0          0          0          0
  gomory           :       0.08       0.00         24         10          0          0        146        201          0         65         65          0          0
  > gomorymi       :          -          -          -          -          -          -          -        201          0         65         65          0          -
  > strongcg       :          -          -          -          -          -          -          -          0          0          0          0          0          -
  impliedbounds    :       0.01       0.00         48         34          0          0        200        410          0        122        122          0          0
  interminor       :       0.00       0.00          0          0          0          0          0          0          0          0          0          0          0
  intobj           :       0.00       0.00          0          0          0          0          0          0          0          0          0          0          0
  mcf              :       0.02       0.00         23         23          0          0         21          3          4          0          0          0          0
  minor            :       0.04       0.00        494         34          0          0       2427          0       2427       1702          0       1702          0
  mixing           :       0.03       0.00        293         34          0          0         15         82          0         10         10          0          0
  oddcycle         :       0.00       0.00          0          0          0          0          0          0          0          0          0          0          0
  rapidlearning    :       0.00       0.00          0          0          0          0          0          0          0          0          0          0          0
  rlt              :       0.01       0.00         10         10          0          0         10         20          0         10         10          0          0
  zerohalf         :       0.03       0.00         34         20          0          0          2          0          0          0          0          0          0
Cutselectors       :   ExecTime  SetupTime      Calls  RootCalls   Selected     Forced   Filtered  RootSelec   RootForc   RootFilt 
  hybrid           :       3.92       0.00      18620         51     941892        194     866791       7911          0       8401
Pricers            :   ExecTime  SetupTime      Calls       Vars
  problem variables:       0.00          -          0          0
Branching Rules    :   ExecTime  SetupTime   BranchLP  BranchExt   BranchPS    Cutoffs    DomReds       Cuts      Conss   Children
  allfullstrong    :       0.00       0.00          0          0          0          0          0          0          0          0
  cloud            :       0.00       0.00          0          0          0          0          0          0          0          0
  distribution     :       0.00       0.00          0          0          0          0          0          0          0          0
  fullstrong       :       0.00       0.00          0          0          0          0          0          0          0          0
  inference        :       0.00       0.00          0          0          0          0          0          0          0          0
  leastinf         :       0.00       0.00          0          0          0          0          0          0          0          0
  lookahead        :       0.00       0.00          0          0          0          0          0          0          0          0
  mostinf          :       0.00       0.00          0          0          0          0          0          0          0          0
  multaggr         :       0.00       0.00          0          0          0          0          0          0          0          0
  nodereopt        :       0.00       0.00          0          0          0          0          0          0          0          0
  pscost           :       0.00       0.00          0          0          0          0          0          0          0          0
  random           :       0.00       0.00          0          0          0          0          0          0          0          0
  relpscost        :      95.30       0.00       1193          0          0          0       1556          0          3       1962
  vanillafullstrong:       0.00       0.00          0          0          0          0          0          0          0          0
Primal Heuristics  :   ExecTime  SetupTime      Calls      Found       Best
  LP solutions     :       0.00          -          -          0          0
  relax solutions  :       0.00          -          -          0          0
  pseudo solutions :       0.00          -          -          0          0
  strong branching :       0.21          -          -          0          0
  actconsdiving    :       0.00       0.00          0          0          0
  adaptivediving   :       4.11       0.00         40          0          0
  alns             :       0.69       0.00          5          0          0
  bound            :       0.00       0.00          0          0          0
  clique           :       0.13       0.00          1          0          0
  coefdiving       :       0.00       0.00          0          0          0
  completesol      :       0.00       0.00          0          0          0
  conflictdiving   :       4.82       0.00        171          0          0
  crossover        :       0.00       0.00          0          0          0
  dins             :       0.00       0.00          0          0          0
  distributiondivin:       7.12       0.00         20          0          0
  dps              :       0.00       0.00          0          0          0
  dualval          :       0.00       0.00          0          0          0
  farkasdiving     :       0.00       0.00          0          0          0
  feaspump         :       5.25       0.00          9          0          0
  fixandinfer      :       0.00       0.00          0          0          0
  fracdiving       :       1.68       0.00        188          0          0
  gins             :       0.00       0.00          0          0          0
  guideddiving     :       0.00       0.00          0          0          0
  indicator        :       0.01       0.00          0          0          0
  indicatordiving  :       0.00       0.00          0          0          0
  intdiving        :       0.00       0.00          0          0          0
  intshifting      :       0.01       0.00         13          0          0
  linesearchdiving :       2.85       0.00        185          0          0
  localbranching   :       0.00       0.00          0          0          0
  locks            :       0.05       0.00          1          0          0
  lpface           :       0.00       0.00          0          0          0
  mpec             :      14.98       0.00          3          0          0
  multistart       :       0.00       0.00          0          0          0
  mutation         :       0.00       0.00          0          0          0
  nlpdiving        :       3.44       0.00          6          0          0
  objpscostdiving  :       6.41       0.00          9          0          0
  octane           :       0.00       0.00          0          0          0
  ofins            :       0.00       0.00          0          0          0
  oneopt           :       0.02       0.00          0          0          0
  padm             :       0.00       0.00          0          0          0
  proximity        :       0.00       0.00          0          0          0
  pscostdiving     :       6.73       0.00         21          0          0
  randrounding     :       0.60       0.00        123          0          0
  rens             :       0.00       0.00          0          0          0
  reoptsols        :       0.00       0.00          0          0          0
  repair           :       0.00       0.00          0          0          0
  rins             :       0.00       0.00          0          0          0
  rootsoldiving    :       5.14       0.00          9          0          0
  rounding         :       0.22       0.00        898          0          0
  shiftandpropagate:       0.02       0.00          1          0          0
  shifting         :       0.12       0.00        210          0          0
  simplerounding   :       0.01       0.00          0          0          0
  subnlp           :       5.54       0.00          3          0          0
  trivial          :       0.00       0.00          2          0          0
  trivialnegation  :       0.00       0.00          0          0          0
  trustregion      :       0.00       0.00          0          0          0
  trysol           :       0.01       0.00          0          0          0
  twoopt           :       0.00       0.00          0          0          0
  undercover       :       0.07       0.00          1          0          0
  vbounds          :       0.00       0.00          0          0          0
  veclendiving     :       2.36       0.00        193          0          0
  zeroobj          :       0.00       0.00          0          0          0
  zirounding       :       0.35       0.00        981          0          0
  other solutions  :          -          -          -          0          -
Expressions        :   #IntEval  IntEvalTi   #RevProp  RevPropTi    DomReds    Cutoffs  #Estimate  EstimTime  Branching  #Simplify SimplifyTi Simplified
  log              :     168495       0.04       2186       0.00        578          0     883307       0.12     262836        160       0.00          0
  pow              :     932783       0.21      18380       0.01       6495          0    9643283       1.25    1801349       2766       0.00        478
  prod             :     472284       0.11     304187       0.14      39319          3   30910881      41.10   10705703       5700       0.01       3100
  sum              :     400720       0.14     207757       0.09      68854          2       4723       0.00          0       8702       0.01       4297
  val              :          0       0.00          0       0.00          0          0          0       0.00          0          0       0.00          0
  var              :     266531       0.02          0       0.00          0          0          0       0.00          0       9809       0.00       2657
  varidx           :          0       0.00          0       0.00          0          0          0       0.00          0          0       0.00          0
Nlhdlrs            :    Detects  DetectAll DetectTime   #IntEval  IntEvalTi   #RevProp  RevPropTi    DomReds    Cutoffs   #Enforce   EnfoTime       Cuts  Branching
  soc              :          7          7       0.00          0       0.00          0       0.00          0          0      91281       0.09        778          0
  convex           :         85         85       0.00          0       0.00          0       0.00          0          0     158816       0.28     150832          0
  concave          :         70         70       0.00          0       0.00          0       0.00          0          0    1077766       2.27       6579          0
  quotient         :        199        199       0.00          0       0.00          0       0.00          0          0    5400339       4.47     188473          0
  quadratic        :        363       8388       0.02     329151       0.57     315577       1.02      78311         72          0       0.00          0          0
  default          :       2669      33043       0.00    1939709       0.61     534769       0.67     115246          5   41440745      81.68    1751861          0
  bilinear         :       1094       1094       0.00     377057       0.04     271811       0.05        796          0   30187797       3.57       5647          0
  perspective      :          0          0       0.00          0       0.00          0       0.00          0          0          0       0.00          0          0
LP                 :       Time      Calls Iterations  Iter/call   Iter/sec  Time-0-It Calls-0-It    ItLimit
  primal LP        :     357.13       3854        337      13.48       0.94     355.17       3829
  dual LP          :    2750.69      31082    7188108     237.91    2613.20      71.10        868
  lex dual LP      :       0.00          0          0       0.00          -
  barrier LP       :       0.00          0          0       0.00          -       0.00          0
  resolve instable :     104.63        582      48679      83.64     465.25
  diving/probing LP:     110.13       1713     472723     275.96    4292.46
  strong branching :      80.91        525     302920     576.99    3744.03          -          -        410
    (at root node) :          -         36       8725     242.36          -
  conflict analysis:       0.00          1         10      10.00          -
NLP relaxation     :
  solve time       :       3.43 (6 calls)
  convexity        :  nonconvex (369 linear rows, 0 convex ineq., 69 nonconvex ineq., 425 nonlinear eq. or two-sided ineq.)
NLP Solvers        :  #Problems  ProblemTi    #Solves  SolveTime      #Iter  Time/Iter      #Okay #TimeLimit #IterLimit #LObjLimit #Interrupt  #NumError #EvalError  #OutOfMem #LicenseEr #OtherTerm   #GlobOpt    #LocOpt  #Feasible #LocInfeas #GlobInfea #Unbounded   #Unknown
  ipopt            :          8       0.09         17      23.25       2004       0.01         16          0          1          0          0          0          0          0          0          0          0          1          0          9          0          0          7
B&B Tree           :
  number of runs   :          1
  nodes            :       3392 (3144 internal, 248 leaves)
  feasible leaves  :          0
  infeas. leaves   :        158
  objective leaves :         89
  nodes (total)    :       3392 (3144 internal, 248 leaves)
  nodes left       :       2898
  max depth        :         58
  max depth (total):         58
  backtracks       :        410 (12.1%)
  early backtracks :          0 (0.0%)
  nodes exc. ref.  :          0 (0.0%)
  delayed cutoffs  :          0
  repropagations   :          0 (0 domain reductions, 0 cutoffs)
  avg switch length:       4.26
  switching time   :     280.70
Root Node          :
  First LP value   : +2.01586812756332e+01
  First LP Iters   :       2241 (27484.12 Iter/sec)
  First LP Time    :       0.08
  Final Dual Bound : +2.01586812756332e+01
  Final Root Iters :      27510
  Root LP Estimate : +2.08972481624116e+01
Solution           :
  Solutions found  :          0 (0 improvements)
  Primal Bound     :          -
  Dual Bound       : +2.01986831872556e+01
  Gap              :   infinite
Integrals          :      Total       Avg%
  primal-dual      :  360000.17     100.00
  primal-ref       :          -          - (not evaluated)
  dual-ref         :          -          - (not evaluated)
